%chk=1.chk
# opt freq b3lyp/6-31g* geom=connectivity

Title Card Required

0 1
 C                 -4.79467325   -2.77712910    0.09912597
 H                 -4.26150950   -3.70483402    0.09912597
 H                 -5.86467325   -2.77712910    0.09912597
 C                 -4.11939894   -1.60215181    0.09912597
 H                 -4.65256269   -0.67444689    0.09912597
 C                 -2.57939894   -1.60215181    0.09912597
 H                 -2.04623519   -2.52985673    0.09912597
 C                 -1.89715554   -0.43120732    0.09912597
 H                 -2.42479801    0.49964896    0.09912597
 C                 -0.35718272   -0.44035708    0.09912597
 H                  0.17045975   -1.37121336    0.09912597
 C                  0.33200569    0.72651326    0.09912597
 H                 -0.19009688    1.66048805    0.09912597
 C                  1.87189697    0.70821406    0.09912597
 H                  2.01957608    1.76797389    0.09912597
 C                  2.94242950   -0.12276555    0.09912597
 H                  2.80104945   -1.18338409    0.09912596
 H                  3.93244796    0.28314508    0.09912599

 1 2 1.0 3 1.0 4 2.0
 2
 3
 4 5 1.0 6 1.0
 5
 6 7 1.0 8 2.0
 7
 8 9 1.0 10 1.0
 9
 10 11 1.0 12 2.0
 11
 12 13 1.0 14 1.0
 13
 14 15 1.0 16 2.0
 15
 16 17 1.0 18 1.0
 17
 18

