%chk=4.chk
# opt freq b3lyp/6-31g* geom=connectivity

Title Card Required

0 1
 C                 -6.20100903    2.00093897   -0.00000000
 H                 -6.78347512    1.10336822   -0.00000000
 H                 -6.68898192    2.95319022   -0.00000000
 C                 -4.84737429    1.93582333   -0.00000000
 H                 -4.26490820    2.83339408   -0.00000000
 C                 -4.14505816    0.56529348   -0.00000000
 H                 -4.72752426   -0.33227727   -0.00000000
 C                 -3.06739480   -0.25641736    0.00000000
 H                 -3.19961731   -1.31821641    0.00000000
 C                 -1.52742198   -0.26556712    0.00000000
 H                 -0.99977951   -1.19642340    0.00000000
 C                 -0.83823357    0.90130321    0.00000000
 H                  0.03555071    0.28372648    0.00000000
 C                 -0.69422915    2.43455555   -0.00000000
 H                  0.37519073    2.46978514   -0.00000000
 C                 -1.40782329    3.58666251   -0.00000000
 H                 -2.47743361    3.55778740   -0.00000003
 H                 -0.89988884    4.52841757    0.00000003

 1 2 1.0 3 1.0 4 2.0
 2
 3
 4 5 1.0 6 1.0
 5
 6 7 1.0 8 2.0
 7
 8 9 1.0 10 1.0
 9
 10 11 1.0 12 2.0
 11
 12 13 1.0 14 1.0
 13
 14 15 1.0 16 2.0
 15
 16 17 1.0 18 1.0
 17
 18

